p cnf 315 2970
1 2 3 4 5 6 7 0
8 9 10 11 12 13 14 0
15 16 17 18 19 20 21 0
22 23 24 25 26 27 28 0
29 30 31 32 33 34 35 0
36 37 38 39 40 41 42 0
43 44 45 46 47 48 49 0
50 51 52 53 54 55 56 0
57 58 59 60 61 62 63 0
64 65 66 67 68 69 70 0
71 72 73 74 75 76 77 0
78 79 80 81 82 83 84 0
85 86 87 88 89 90 91 0
92 93 94 95 96 97 98 0
99 100 101 102 103 104 105 0
106 107 108 109 110 111 112 0
113 114 115 116 117 118 119 0
120 121 122 123 124 125 126 0
127 128 129 130 131 132 133 0
134 135 136 137 138 139 140 0
141 142 143 144 145 146 147 0
148 149 150 151 152 153 154 0
155 156 157 158 159 160 161 0
162 163 164 165 166 167 168 0
169 170 171 172 173 174 175 0
176 177 178 179 180 181 182 0
183 184 185 186 187 188 189 0
190 191 192 193 194 195 196 0
197 198 199 200 201 202 203 0
204 205 206 207 208 209 210 0
211 212 213 214 215 216 217 0
218 219 220 221 222 223 224 0
225 226 227 228 229 230 231 0
232 233 234 235 236 237 238 0
239 240 241 242 243 244 245 0
246 247 248 249 250 251 252 0
253 254 255 256 257 258 259 0
260 261 262 263 264 265 266 0
267 268 269 270 271 272 273 0
274 275 276 277 278 279 280 0
281 282 283 284 285 286 287 0
288 289 290 291 292 293 294 0
295 296 297 298 299 300 301 0
302 303 304 305 306 307 308 0
309 310 311 312 313 314 315 0
-1 -2 0
-1 -3 0
-1 -4 0
-1 -5 0
-1 -6 0
-1 -7 0
-2 -3 0
-2 -4 0
-2 -5 0
-2 -6 0
-2 -7 0
-3 -4 0
-3 -5 0
-3 -6 0
-3 -7 0
-4 -5 0
-4 -6 0
-4 -7 0
-5 -6 0
-5 -7 0
-6 -7 0
-8 -9 0
-8 -10 0
-8 -11 0
-8 -12 0
-8 -13 0
-8 -14 0
-9 -10 0
-9 -11 0
-9 -12 0
-9 -13 0
-9 -14 0
-10 -11 0
-10 -12 0
-10 -13 0
-10 -14 0
-11 -12 0
-11 -13 0
-11 -14 0
-12 -13 0
-12 -14 0
-13 -14 0
-15 -16 0
-15 -17 0
-15 -18 0
-15 -19 0
-15 -20 0
-15 -21 0
-16 -17 0
-16 -18 0
-16 -19 0
-16 -20 0
-16 -21 0
-17 -18 0
-17 -19 0
-17 -20 0
-17 -21 0
-18 -19 0
-18 -20 0
-18 -21 0
-19 -20 0
-19 -21 0
-20 -21 0
-22 -23 0
-22 -24 0
-22 -25 0
-22 -26 0
-22 -27 0
-22 -28 0
-23 -24 0
-23 -25 0
-23 -26 0
-23 -27 0
-23 -28 0
-24 -25 0
-24 -26 0
-24 -27 0
-24 -28 0
-25 -26 0
-25 -27 0
-25 -28 0
-26 -27 0
-26 -28 0
-27 -28 0
-29 -30 0
-29 -31 0
-29 -32 0
-29 -33 0
-29 -34 0
-29 -35 0
-30 -31 0
-30 -32 0
-30 -33 0
-30 -34 0
-30 -35 0
-31 -32 0
-31 -33 0
-31 -34 0
-31 -35 0
-32 -33 0
-32 -34 0
-32 -35 0
-33 -34 0
-33 -35 0
-34 -35 0
-36 -37 0
-36 -38 0
-36 -39 0
-36 -40 0
-36 -41 0
-36 -42 0
-37 -38 0
-37 -39 0
-37 -40 0
-37 -41 0
-37 -42 0
-38 -39 0
-38 -40 0
-38 -41 0
-38 -42 0
-39 -40 0
-39 -41 0
-39 -42 0
-40 -41 0
-40 -42 0
-41 -42 0
-43 -44 0
-43 -45 0
-43 -46 0
-43 -47 0
-43 -48 0
-43 -49 0
-44 -45 0
-44 -46 0
-44 -47 0
-44 -48 0
-44 -49 0
-45 -46 0
-45 -47 0
-45 -48 0
-45 -49 0
-46 -47 0
-46 -48 0
-46 -49 0
-47 -48 0
-47 -49 0
-48 -49 0
-50 -51 0
-50 -52 0
-50 -53 0
-50 -54 0
-50 -55 0
-50 -56 0
-51 -52 0
-51 -53 0
-51 -54 0
-51 -55 0
-51 -56 0
-52 -53 0
-52 -54 0
-52 -55 0
-52 -56 0
-53 -54 0
-53 -55 0
-53 -56 0
-54 -55 0
-54 -56 0
-55 -56 0
-57 -58 0
-57 -59 0
-57 -60 0
-57 -61 0
-57 -62 0
-57 -63 0
-58 -59 0
-58 -60 0
-58 -61 0
-58 -62 0
-58 -63 0
-59 -60 0
-59 -61 0
-59 -62 0
-59 -63 0
-60 -61 0
-60 -62 0
-60 -63 0
-61 -62 0
-61 -63 0
-62 -63 0
-64 -65 0
-64 -66 0
-64 -67 0
-64 -68 0
-64 -69 0
-64 -70 0
-65 -66 0
-65 -67 0
-65 -68 0
-65 -69 0
-65 -70 0
-66 -67 0
-66 -68 0
-66 -69 0
-66 -70 0
-67 -68 0
-67 -69 0
-67 -70 0
-68 -69 0
-68 -70 0
-69 -70 0
-71 -72 0
-71 -73 0
-71 -74 0
-71 -75 0
-71 -76 0
-71 -77 0
-72 -73 0
-72 -74 0
-72 -75 0
-72 -76 0
-72 -77 0
-73 -74 0
-73 -75 0
-73 -76 0
-73 -77 0
-74 -75 0
-74 -76 0
-74 -77 0
-75 -76 0
-75 -77 0
-76 -77 0
-78 -79 0
-78 -80 0
-78 -81 0
-78 -82 0
-78 -83 0
-78 -84 0
-79 -80 0
-79 -81 0
-79 -82 0
-79 -83 0
-79 -84 0
-80 -81 0
-80 -82 0
-80 -83 0
-80 -84 0
-81 -82 0
-81 -83 0
-81 -84 0
-82 -83 0
-82 -84 0
-83 -84 0
-85 -86 0
-85 -87 0
-85 -88 0
-85 -89 0
-85 -90 0
-85 -91 0
-86 -87 0
-86 -88 0
-86 -89 0
-86 -90 0
-86 -91 0
-87 -88 0
-87 -89 0
-87 -90 0
-87 -91 0
-88 -89 0
-88 -90 0
-88 -91 0
-89 -90 0
-89 -91 0
-90 -91 0
-92 -93 0
-92 -94 0
-92 -95 0
-92 -96 0
-92 -97 0
-92 -98 0
-93 -94 0
-93 -95 0
-93 -96 0
-93 -97 0
-93 -98 0
-94 -95 0
-94 -96 0
-94 -97 0
-94 -98 0
-95 -96 0
-95 -97 0
-95 -98 0
-96 -97 0
-96 -98 0
-97 -98 0
-99 -100 0
-99 -101 0
-99 -102 0
-99 -103 0
-99 -104 0
-99 -105 0
-100 -101 0
-100 -102 0
-100 -103 0
-100 -104 0
-100 -105 0
-101 -102 0
-101 -103 0
-101 -104 0
-101 -105 0
-102 -103 0
-102 -104 0
-102 -105 0
-103 -104 0
-103 -105 0
-104 -105 0
-106 -107 0
-106 -108 0
-106 -109 0
-106 -110 0
-106 -111 0
-106 -112 0
-107 -108 0
-107 -109 0
-107 -110 0
-107 -111 0
-107 -112 0
-108 -109 0
-108 -110 0
-108 -111 0
-108 -112 0
-109 -110 0
-109 -111 0
-109 -112 0
-110 -111 0
-110 -112 0
-111 -112 0
-113 -114 0
-113 -115 0
-113 -116 0
-113 -117 0
-113 -118 0
-113 -119 0
-114 -115 0
-114 -116 0
-114 -117 0
-114 -118 0
-114 -119 0
-115 -116 0
-115 -117 0
-115 -118 0
-115 -119 0
-116 -117 0
-116 -118 0
-116 -119 0
-117 -118 0
-117 -119 0
-118 -119 0
-120 -121 0
-120 -122 0
-120 -123 0
-120 -124 0
-120 -125 0
-120 -126 0
-121 -122 0
-121 -123 0
-121 -124 0
-121 -125 0
-121 -126 0
-122 -123 0
-122 -124 0
-122 -125 0
-122 -126 0
-123 -124 0
-123 -125 0
-123 -126 0
-124 -125 0
-124 -126 0
-125 -126 0
-127 -128 0
-127 -129 0
-127 -130 0
-127 -131 0
-127 -132 0
-127 -133 0
-128 -129 0
-128 -130 0
-128 -131 0
-128 -132 0
-128 -133 0
-129 -130 0
-129 -131 0
-129 -132 0
-129 -133 0
-130 -131 0
-130 -132 0
-130 -133 0
-131 -132 0
-131 -133 0
-132 -133 0
-134 -135 0
-134 -136 0
-134 -137 0
-134 -138 0
-134 -139 0
-134 -140 0
-135 -136 0
-135 -137 0
-135 -138 0
-135 -139 0
-135 -140 0
-136 -137 0
-136 -138 0
-136 -139 0
-136 -140 0
-137 -138 0
-137 -139 0
-137 -140 0
-138 -139 0
-138 -140 0
-139 -140 0
-141 -142 0
-141 -143 0
-141 -144 0
-141 -145 0
-141 -146 0
-141 -147 0
-142 -143 0
-142 -144 0
-142 -145 0
-142 -146 0
-142 -147 0
-143 -144 0
-143 -145 0
-143 -146 0
-143 -147 0
-144 -145 0
-144 -146 0
-144 -147 0
-145 -146 0
-145 -147 0
-146 -147 0
-148 -149 0
-148 -150 0
-148 -151 0
-148 -152 0
-148 -153 0
-148 -154 0
-149 -150 0
-149 -151 0
-149 -152 0
-149 -153 0
-149 -154 0
-150 -151 0
-150 -152 0
-150 -153 0
-150 -154 0
-151 -152 0
-151 -153 0
-151 -154 0
-152 -153 0
-152 -154 0
-153 -154 0
-155 -156 0
-155 -157 0
-155 -158 0
-155 -159 0
-155 -160 0
-155 -161 0
-156 -157 0
-156 -158 0
-156 -159 0
-156 -160 0
-156 -161 0
-157 -158 0
-157 -159 0
-157 -160 0
-157 -161 0
-158 -159 0
-158 -160 0
-158 -161 0
-159 -160 0
-159 -161 0
-160 -161 0
-162 -163 0
-162 -164 0
-162 -165 0
-162 -166 0
-162 -167 0
-162 -168 0
-163 -164 0
-163 -165 0
-163 -166 0
-163 -167 0
-163 -168 0
-164 -165 0
-164 -166 0
-164 -167 0
-164 -168 0
-165 -166 0
-165 -167 0
-165 -168 0
-166 -167 0
-166 -168 0
-167 -168 0
-169 -170 0
-169 -171 0
-169 -172 0
-169 -173 0
-169 -174 0
-169 -175 0
-170 -171 0
-170 -172 0
-170 -173 0
-170 -174 0
-170 -175 0
-171 -172 0
-171 -173 0
-171 -174 0
-171 -175 0
-172 -173 0
-172 -174 0
-172 -175 0
-173 -174 0
-173 -175 0
-174 -175 0
-176 -177 0
-176 -178 0
-176 -179 0
-176 -180 0
-176 -181 0
-176 -182 0
-177 -178 0
-177 -179 0
-177 -180 0
-177 -181 0
-177 -182 0
-178 -179 0
-178 -180 0
-178 -181 0
-178 -182 0
-179 -180 0
-179 -181 0
-179 -182 0
-180 -181 0
-180 -182 0
-181 -182 0
-183 -184 0
-183 -185 0
-183 -186 0
-183 -187 0
-183 -188 0
-183 -189 0
-184 -185 0
-184 -186 0
-184 -187 0
-184 -188 0
-184 -189 0
-185 -186 0
-185 -187 0
-185 -188 0
-185 -189 0
-186 -187 0
-186 -188 0
-186 -189 0
-187 -188 0
-187 -189 0
-188 -189 0
-190 -191 0
-190 -192 0
-190 -193 0
-190 -194 0
-190 -195 0
-190 -196 0
-191 -192 0
-191 -193 0
-191 -194 0
-191 -195 0
-191 -196 0
-192 -193 0
-192 -194 0
-192 -195 0
-192 -196 0
-193 -194 0
-193 -195 0
-193 -196 0
-194 -195 0
-194 -196 0
-195 -196 0
-197 -198 0
-197 -199 0
-197 -200 0
-197 -201 0
-197 -202 0
-197 -203 0
-198 -199 0
-198 -200 0
-198 -201 0
-198 -202 0
-198 -203 0
-199 -200 0
-199 -201 0
-199 -202 0
-199 -203 0
-200 -201 0
-200 -202 0
-200 -203 0
-201 -202 0
-201 -203 0
-202 -203 0
-204 -205 0
-204 -206 0
-204 -207 0
-204 -208 0
-204 -209 0
-204 -210 0
-205 -206 0
-205 -207 0
-205 -208 0
-205 -209 0
-205 -210 0
-206 -207 0
-206 -208 0
-206 -209 0
-206 -210 0
-207 -208 0
-207 -209 0
-207 -210 0
-208 -209 0
-208 -210 0
-209 -210 0
-211 -212 0
-211 -213 0
-211 -214 0
-211 -215 0
-211 -216 0
-211 -217 0
-212 -213 0
-212 -214 0
-212 -215 0
-212 -216 0
-212 -217 0
-213 -214 0
-213 -215 0
-213 -216 0
-213 -217 0
-214 -215 0
-214 -216 0
-214 -217 0
-215 -216 0
-215 -217 0
-216 -217 0
-218 -219 0
-218 -220 0
-218 -221 0
-218 -222 0
-218 -223 0
-218 -224 0
-219 -220 0
-219 -221 0
-219 -222 0
-219 -223 0
-219 -224 0
-220 -221 0
-220 -222 0
-220 -223 0
-220 -224 0
-221 -222 0
-221 -223 0
-221 -224 0
-222 -223 0
-222 -224 0
-223 -224 0
-225 -226 0
-225 -227 0
-225 -228 0
-225 -229 0
-225 -230 0
-225 -231 0
-226 -227 0
-226 -228 0
-226 -229 0
-226 -230 0
-226 -231 0
-227 -228 0
-227 -229 0
-227 -230 0
-227 -231 0
-228 -229 0
-228 -230 0
-228 -231 0
-229 -230 0
-229 -231 0
-230 -231 0
-232 -233 0
-232 -234 0
-232 -235 0
-232 -236 0
-232 -237 0
-232 -238 0
-233 -234 0
-233 -235 0
-233 -236 0
-233 -237 0
-233 -238 0
-234 -235 0
-234 -236 0
-234 -237 0
-234 -238 0
-235 -236 0
-235 -237 0
-235 -238 0
-236 -237 0
-236 -238 0
-237 -238 0
-239 -240 0
-239 -241 0
-239 -242 0
-239 -243 0
-239 -244 0
-239 -245 0
-240 -241 0
-240 -242 0
-240 -243 0
-240 -244 0
-240 -245 0
-241 -242 0
-241 -243 0
-241 -244 0
-241 -245 0
-242 -243 0
-242 -244 0
-242 -245 0
-243 -244 0
-243 -245 0
-244 -245 0
-246 -247 0
-246 -248 0
-246 -249 0
-246 -250 0
-246 -251 0
-246 -252 0
-247 -248 0
-247 -249 0
-247 -250 0
-247 -251 0
-247 -252 0
-248 -249 0
-248 -250 0
-248 -251 0
-248 -252 0
-249 -250 0
-249 -251 0
-249 -252 0
-250 -251 0
-250 -252 0
-251 -252 0
-253 -254 0
-253 -255 0
-253 -256 0
-253 -257 0
-253 -258 0
-253 -259 0
-254 -255 0
-254 -256 0
-254 -257 0
-254 -258 0
-254 -259 0
-255 -256 0
-255 -257 0
-255 -258 0
-255 -259 0
-256 -257 0
-256 -258 0
-256 -259 0
-257 -258 0
-257 -259 0
-258 -259 0
-260 -261 0
-260 -262 0
-260 -263 0
-260 -264 0
-260 -265 0
-260 -266 0
-261 -262 0
-261 -263 0
-261 -264 0
-261 -265 0
-261 -266 0
-262 -263 0
-262 -264 0
-262 -265 0
-262 -266 0
-263 -264 0
-263 -265 0
-263 -266 0
-264 -265 0
-264 -266 0
-265 -266 0
-267 -268 0
-267 -269 0
-267 -270 0
-267 -271 0
-267 -272 0
-267 -273 0
-268 -269 0
-268 -270 0
-268 -271 0
-268 -272 0
-268 -273 0
-269 -270 0
-269 -271 0
-269 -272 0
-269 -273 0
-270 -271 0
-270 -272 0
-270 -273 0
-271 -272 0
-271 -273 0
-272 -273 0
-274 -275 0
-274 -276 0
-274 -277 0
-274 -278 0
-274 -279 0
-274 -280 0
-275 -276 0
-275 -277 0
-275 -278 0
-275 -279 0
-275 -280 0
-276 -277 0
-276 -278 0
-276 -279 0
-276 -280 0
-277 -278 0
-277 -279 0
-277 -280 0
-278 -279 0
-278 -280 0
-279 -280 0
-281 -282 0
-281 -283 0
-281 -284 0
-281 -285 0
-281 -286 0
-281 -287 0
-282 -283 0
-282 -284 0
-282 -285 0
-282 -286 0
-282 -287 0
-283 -284 0
-283 -285 0
-283 -286 0
-283 -287 0
-284 -285 0
-284 -286 0
-284 -287 0
-285 -286 0
-285 -287 0
-286 -287 0
-288 -289 0
-288 -290 0
-288 -291 0
-288 -292 0
-288 -293 0
-288 -294 0
-289 -290 0
-289 -291 0
-289 -292 0
-289 -293 0
-289 -294 0
-290 -291 0
-290 -292 0
-290 -293 0
-290 -294 0
-291 -292 0
-291 -293 0
-291 -294 0
-292 -293 0
-292 -294 0
-293 -294 0
-295 -296 0
-295 -297 0
-295 -298 0
-295 -299 0
-295 -300 0
-295 -301 0
-296 -297 0
-296 -298 0
-296 -299 0
-296 -300 0
-296 -301 0
-297 -298 0
-297 -299 0
-297 -300 0
-297 -301 0
-298 -299 0
-298 -300 0
-298 -301 0
-299 -300 0
-299 -301 0
-300 -301 0
-302 -303 0
-302 -304 0
-302 -305 0
-302 -306 0
-302 -307 0
-302 -308 0
-303 -304 0
-303 -305 0
-303 -306 0
-303 -307 0
-303 -308 0
-304 -305 0
-304 -306 0
-304 -307 0
-304 -308 0
-305 -306 0
-305 -307 0
-305 -308 0
-306 -307 0
-306 -308 0
-307 -308 0
-309 -310 0
-309 -311 0
-309 -312 0
-309 -313 0
-309 -314 0
-309 -315 0
-310 -311 0
-310 -312 0
-310 -313 0
-310 -314 0
-310 -315 0
-311 -312 0
-311 -313 0
-311 -314 0
-311 -315 0
-312 -313 0
-312 -314 0
-312 -315 0
-313 -314 0
-313 -315 0
-314 -315 0
-5 -10 0
-1 -13 0
-5 -11 0
-1 -14 0
-3 -25 0
-2 -22 0
-3 -23 0
-2 -26 0
-1 -73 0
-6 -77 0
-5 -75 0
-2 -71 0
-5 -104 0
-6 -101 0
-2 -101 0
-7 -105 0
-5 -112 0
-3 -112 0
-7 -108 0
-4 -108 0
-5 -131 0
-7 -130 0
-7 -129 0
-3 -127 0
-7 -139 0
-2 -140 0
-7 -136 0
-3 -139 0
-7 -146 0
-4 -145 0
-3 -147 0
-3 -146 0
-3 -152 0
-4 -150 0
-7 -149 0
-5 -153 0
-6 -159 0
-5 -161 0
-3 -161 0
-2 -155 0
-3 -167 0
-2 -167 0
-5 -164 0
-3 -166 0
-3 -179 0
-3 -182 0
-6 -178 0
-3 -177 0
-4 -191 0
-2 -193 0
-2 -190 0
-5 -196 0
-3 -197 0
-2 -197 0
-1 -197 0
-4 -198 0
-6 -210 0
-2 -204 0
-5 -210 0
-4 -205 0
-5 -213 0
-4 -211 0
-7 -213 0
-1 -217 0
-5 -219 0
-2 -218 0
-2 -219 0
-1 -222 0
-6 -229 0
-6 -225 0
-4 -228 0
-3 -231 0
-5 -235 0
-5 -236 0
-7 -232 0
-2 -238 0
-3 -241 0
-4 -243 0
-5 -245 0
-2 -243 0
-3 -258 0
-4 -254 0
-4 -253 0
-7 -254 0
-4 -260 0
-2 -265 0
-7 -264 0
-5 -261 0
-3 -276 0
-1 -276 0
-1 -280 0
-4 -274 0
-5 -296 0
-2 -297 0
-4 -301 0
-7 -296 0
-3 -306 0
-1 -304 0
-4 -308 0
-3 -302 0
-10 -38 0
-11 -36 0
-13 -36 0
-11 -39 0
-8 -60 0
-12 -63 0
-9 -62 0
-11 -62 0
-12 -72 0
-11 -73 0
-8 -76 0
-8 -74 0
-9 -78 0
-13 -81 0
-10 -84 0
-8 -78 0
-8 -91 0
-9 -91 0
-13 -86 0
-8 -89 0
-13 -92 0
-11 -95 0
-14 -97 0
-13 -98 0
-9 -121 0
-14 -125 0
-12 -120 0
-14 -121 0
-14 -161 0
-12 -160 0
-14 -157 0
-9 -157 0
-13 -163 0
-11 -165 0
-9 -167 0
-14 -168 0
-12 -181 0
-8 -179 0
-8 -181 0
-13 -180 0
-10 -202 0
-14 -201 0
-8 -198 0
-10 -200 0
-13 -217 0
-14 -213 0
-14 -216 0
-12 -211 0
-13 -229 0
-8 -227 0
-13 -227 0
-9 -228 0
-14 -240 0
-14 -243 0
-14 -244 0
-11 -241 0
-11 -261 0
-12 -263 0
-13 -261 0
-12 -261 0
-13 -275 0
-14 -280 0
-8 -279 0
-13 -278 0
-11 -291 0
-14 -293 0
-13 -291 0
-11 -293 0
-12 -314 0
-10 -309 0
-12 -315 0
-11 -313 0
-18 -36 0
-16 -42 0
-20 -38 0
-16 -38 0
-16 -78 0
-21 -81 0
-18 -83 0
-16 -81 0
-21 -86 0
-16 -86 0
-19 -88 0
-15 -89 0
-15 -118 0
-20 -115 0
-15 -113 0
-17 -113 0
-15 -125 0
-15 -123 0
-21 -123 0
-20 -122 0
-20 -136 0
-20 -135 0
-16 -136 0
-21 -135 0
-21 -148 0
-17 -150 0
-19 -152 0
-21 -154 0
-18 -161 0
-19 -160 0
-21 -155 0
-16 -156 0
-17 -177 0
-16 -176 0
-21 -176 0
-17 -179 0
-19 -190 0
-15 -190 0
-21 -193 0
-17 -192 0
-15 -205 0
-17 -206 0
-16 -208 0
-17 -204 0
-20 -236 0
-16 -237 0
-16 -236 0
-20 -233 0
-18 -252 0
-18 -247 0
-15 -252 0
-20 -252 0
-15 -272 0
-20 -273 0
-18 -269 0
-16 -268 0
-20 -285 0
-16 -287 0
-15 -284 0
-16 -283 0
-16 -306 0
-19 -307 0
-21 -302 0
-19 -305 0
-25 -39 0
-23 -42 0
-27 -37 0
-22 -38 0
-23 -45 0
-24 -48 0
-25 -45 0
-24 -45 0
-25 -66 0
-24 -68 0
-26 -67 0
-27 -70 0
-23 -78 0
-24 -82 0
-24 -80 0
-22 -84 0
-25 -87 0
-24 -86 0
-27 -85 0
-23 -86 0
-23 -97 0
-28 -93 0
-23 -94 0
-23 -98 0
-26 -107 0
-28 -108 0
-27 -109 0
-26 -110 0
-27 -116 0
-27 -117 0
-23 -117 0
-28 -113 0
-27 -126 0
-23 -126 0
-26 -125 0
-25 -121 0
-23 -133 0
-22 -132 0
-28 -128 0
-22 -127 0
-25 -135 0
-23 -135 0
-22 -139 0
-22 -138 0
-25 -153 0
-23 -148 0
-25 -152 0
-22 -154 0
-28 -158 0
-25 -156 0
-23 -157 0
-25 -158 0
-23 -178 0
-27 -181 0
-22 -178 0
-25 -182 0
-28 -187 0
-27 -184 0
-28 -183 0
-27 -188 0
-24 -199 0
-25 -201 0
-24 -202 0
-22 -197 0
-28 -208 0
-26 -204 0
-25 -207 0
-26 -207 0
-24 -216 0
-22 -211 0
-23 -214 0
-23 -211 0
-22 -235 0
-28 -238 0
-28 -237 0
-25 -237 0
-24 -259 0
-27 -253 0
-25 -254 0
-28 -258 0
-25 -271 0
-24 -267 0
-28 -269 0
-28 -272 0
-26 -299 0
-24 -299 0
-24 -300 0
-27 -298 0
-34 -37 0
-34 -40 0
-29 -39 0
-34 -41 0
-29 -52 0
-33 -51 0
-29 -55 0
-35 -56 0
-31 -63 0
-32 -61 0
-34 -58 0
-34 -59 0
-32 -70 0
-32 -64 0
-30 -69 0
-30 -67 0
-34 -126 0
-31 -126 0
-29 -124 0
-33 -120 0
-29 -129 0
-32 -127 0
-35 -129 0
-29 -132 0
-34 -139 0
-29 -134 0
-31 -138 0
-34 -135 0
-29 -151 0
-35 -148 0
-35 -154 0
-29 -148 0
-29 -159 0
-30 -156 0
-29 -155 0
-31 -160 0
-29 -172 0
-33 -174 0
-33 -172 0
-30 -169 0
-29 -177 0
-31 -178 0
-32 -176 0
-35 -181 0
-32 -189 0
-34 -186 0
-33 -186 0
-33 -188 0
-29 -197 0
-31 -200 0
-34 -197 0
-33 -200 0
-31 -206 0
-29 -208 0
-33 -207 0
-32 -206 0
-31 -240 0
-30 -239 0
-32 -243 0
-31 -239 0
-29 -250 0
-33 -248 0
-32 -250 0
-33 -246 0
-29 -265 0
-30 -264 0
-29 -263 0
-29 -266 0
-35 -271 0
-33 -267 0
-34 -268 0
-31 -269 0
-34 -276 0
-30 -280 0
-35 -274 0
-31 -278 0
-34 -296 0
-33 -296 0
-35 -301 0
-35 -300 0
-40 -46 0
-38 -44 0
-38 -48 0
-40 -44 0
-38 -53 0
-41 -54 0
-36 -53 0
-42 -51 0
-36 -62 0
-42 -60 0
-40 -62 0
-41 -59 0
-39 -67 0
-36 -69 0
-38 -65 0
-37 -66 0
-40 -77 0
-41 -73 0
-37 -71 0
-41 -76 0
-40 -92 0
-42 -93 0
-36 -95 0
-36 -94 0
-41 -109 0
-40 -107 0
-39 -108 0
-36 -111 0
-36 -143 0
-41 -144 0
-42 -142 0
-38 -142 0
-38 -150 0
-39 -152 0
-39 -154 0
-36 -151 0
-40 -155 0
-41 -158 0
-37 -161 0
-36 -159 0
-40 -164 0
-41 -165 0
-39 -165 0
-36 -162 0
-42 -176 0
-42 -178 0
-41 -182 0
-37 -180 0
-40 -196 0
-41 -195 0
-41 -196 0
-39 -196 0
-38 -199 0
-41 -197 0
-42 -203 0
-38 -201 0
-39 -204 0
-36 -207 0
-38 -210 0
-40 -205 0
-42 -212 0
-41 -217 0
-37 -217 0
-36 -216 0
-37 -219 0
-37 -218 0
-42 -219 0
-38 -219 0
-38 -229 0
-42 -230 0
-39 -229 0
-41 -228 0
-39 -243 0
-41 -244 0
-36 -243 0
-37 -245 0
-38 -250 0
-38 -252 0
-38 -248 0
-38 -247 0
-40 -264 0
-37 -264 0
-36 -262 0
-40 -263 0
-37 -272 0
-41 -273 0
-40 -269 0
-42 -269 0
-38 -275 0
-42 -276 0
-36 -280 0
-42 -278 0
-40 -286 0
-42 -281 0
-39 -283 0
-42 -284 0
-36 -294 0
-42 -292 0
-41 -288 0
-42 -294 0
-39 -304 0
-37 -308 0
-42 -307 0
-42 -304 0
-37 -310 0
-37 -313 0
-41 -310 0
-37 -312 0
-44 -54 0
-49 -52 0
-44 -52 0
-46 -54 0
-47 -61 0
-49 -60 0
-43 -58 0
-44 -61 0
-47 -83 0
-46 -84 0
-46 -83 0
-47 -79 0
-48 -87 0
-48 -86 0
-46 -85 0
-48 -89 0
-47 -94 0
-45 -96 0
-43 -96 0
-49 -97 0
-48 -120 0
-43 -120 0
-44 -122 0
-47 -124 0
-43 -143 0
-47 -144 0
-44 -144 0
-44 -147 0
-45 -172 0
-45 -171 0
-43 -170 0
-43 -173 0
-49 -176 0
-47 -180 0
-49 -179 0
-48 -182 0
-46 -197 0
-43 -198 0
-47 -198 0
-46 -202 0
-44 -210 0
-45 -204 0
-44 -204 0
-43 -204 0
-48 -247 0
-43 -248 0
-49 -248 0
-47 -247 0
-47 -275 0
-47 -277 0
-45 -278 0
-43 -278 0
-53 -57 0
-52 -60 0
-56 -60 0
-54 -57 0
-52 -69 0
-55 -66 0
-53 -68 0
-53 -70 0
-50 -78 0
-55 -83 0
-54 -84 0
-54 -82 0
-51 -95 0
-54 -96 0
-53 -92 0
-53 -95 0
-53 -112 0
-51 -109 0
-51 -112 0
-53 -111 0
-54 -126 0
-50 -122 0
-53 -123 0
-54 -121 0
-53 -132 0
-55 -132 0
-53 -133 0
-56 -131 0
-53 -144 0
-53 -142 0
-53 -143 0
-50 -145 0
-54 -157 0
-52 -155 0
-53 -156 0
-54 -155 0
-52 -167 0
-50 -165 0
-51 -167 0
-56 -162 0
-54 -174 0
-56 -172 0
-56 -170 0
-51 -172 0
-55 -179 0
-54 -182 0
-56 -177 0
-52 -181 0
-52 -188 0
-50 -183 0
-52 -189 0
-53 -184 0
-52 -196 0
-53 -195 0
-54 -191 0
-53 -190 0
-54 -208 0
-56 -206 0
-55 -208 0
-51 -208 0
-50 -217 0
-55 -213 0
-52 -215 0
-56 -214 0
-54 -222 0
-51 -222 0
-52 -223 0
-56 -222 0
-56 -235 0
-56 -237 0
-56 -232 0
-51 -234 0
-50 -239 0
-50 -245 0
-51 -239 0
-55 -239 0
-52 -249 0
-54 -249 0
-53 -252 0
-52 -252 0
-54 -283 0
-54 -287 0
-56 -287 0
-56 -282 0
-54 -288 0
-52 -290 0
-56 -290 0
-50 -293 0
-51 -315 0
-56 -315 0
-52 -314 0
-54 -315 0
-60 -69 0
-60 -66 0
-59 -70 0
-57 -70 0
-61 -92 0
-62 -94 0
-63 -95 0
-57 -94 0
-59 -106 0
-57 -106 0
-60 -108 0
-58 -109 0
-57 -117 0
-60 -119 0
-63 -114 0
-57 -114 0
-59 -135 0
-59 -138 0
-61 -136 0
-63 -135 0
-61 -154 0
-60 -154 0
-60 -151 0
-58 -150 0
-60 -163 0
-60 -162 0
-61 -168 0
-63 -164 0
-61 -190 0
-60 -196 0
-59 -192 0
-61 -193 0
-63 -201 0
-59 -198 0
-60 -199 0
-59 -201 0
-57 -206 0
-58 -206 0
-59 -207 0
-62 -204 0
-58 -214 0
-60 -217 0
-60 -212 0
-59 -215 0
-61 -243 0
-58 -241 0
-58 -242 0
-63 -239 0
-59 -252 0
-57 -247 0
-63 -252 0
-58 -247 0
-63 -268 0
-59 -271 0
-62 -268 0
-63 -273 0
-60 -282 0
-57 -287 0
-58 -282 0
-57 -281 0
-62 -292 0
-58 -294 0
-57 -294 0
-57 -291 0
-62 -298 0
-58 -295 0
-62 -301 0
-63 -299 0
-70 -72 0
-64 -74 0
-67 -74 0
-66 -76 0
-69 -96 0
-66 -95 0
-70 -98 0
-66 -94 0
-70 -105 0
-65 -103 0
-65 -102 0
-68 -103 0
-70 -127 0
-70 -131 0
-64 -127 0
-64 -131 0
-65 -146 0
-70 -145 0
-67 -145 0
-64 -141 0
-70 -182 0
-67 -179 0
-64 -177 0
-65 -181 0
-70 -184 0
-70 -187 0
-70 -186 0
-69 -188 0
-69 -200 0
-67 -197 0
-70 -202 0
-64 -198 0
-67 -232 0
-68 -234 0
-66 -235 0
-70 -235 0
-66 -241 0
-67 -240 0
-68 -244 0
-64 -245 0
-70 -262 0
-69 -262 0
-64 -265 0
-66 -260 0
-67 -268 0
-68 -273 0
-68 -268 0
-70 -273 0
-70 -281 0
-65 -286 0
-70 -283 0
-67 -283 0
-68 -290 0
-64 -290 0
-64 -294 0
-67 -290 0
-67 -297 0
-70 -300 0
-64 -301 0
-68 -301 0
-68 -314 0
-66 -315 0
-66 -313 0
-68 -310 0
-75 -95 0
-71 -98 0
-75 -94 0
-73 -97 0
-77 -108 0
-75 -109 0
-76 -107 0
-75 -108 0
-75 -116 0
-71 -114 0
-76 -116 0
-72 -118 0
-75 -126 0
-71 -121 0
-71 -123 0
-73 -122 0
-73 -131 0
-71 -129 0
-73 -129 0
-76 -128 0
-72 -142 0
-74 -144 0
-74 -143 0
-76 -147 0
-77 -152 0
-75 -149 0
-77 -148 0
-73 -149 0
-77 -167 0
-76 -163 0
-75 -168 0
-74 -165 0
-73 -189 0
-76 -189 0
-73 -185 0
-75 -183 0
-71 -210 0
-75 -210 0
-74 -204 0
-77 -210 0
-75 -234 0
-75 -238 0
-72 -235 0
-76 -234 0
-75 -239 0
-72 -241 0
-73 -239 0
-71 -242 0
-71 -248 0
-73 -247 0
-73 -252 0
-71 -250 0
-72 -258 0
-76 -258 0
-74 -254 0
-72 -254 0
-71 -265 0
-74 -261 0
-77 -266 0
-72 -266 0
-75 -269 0
-72 -269 0
-76 -273 0
-73 -269 0
-75 -280 0
-76 -278 0
-76 -279 0
-77 -277 0
-71 -294 0
-72 -292 0
-72 -291 0
-76 -293 0
-77 -299 0
-77 -296 0
-71 -295 0
-74 -298 0
-75 -308 0
-75 -307 0
-74 -305 0
-72 -307 0
-79 -89 0
-83 -87 0
-81 -91 0
-78 -90 0
-79 -117 0
-84 -115 0
-84 -114 0
-80 -115 0
-80 -122 0
-81 -120 0
-78 -121 0
-81 -124 0
-81 -137 0
-83 -136 0
-78 -137 0
-81 -134 0
-84 -151 0
-83 -152 0
-83 -149 0
-84 -148 0
-84 -156 0
-79 -155 0
-81 -155 0
-83 -161 0
-81 -169 0
-80 -172 0
-83 -169 0
-81 -171 0
-82 -203 0
-81 -202 0
-81 -198 0
-84 -200 0
-79 -208 0
-82 -206 0
-83 -210 0
-81 -205 0
-84 -215 0
-81 -215 0
-79 -211 0
-78 -217 0
-80 -228 0
-83 -225 0
-79 -225 0
-79 -226 0
-83 -233 0
-83 -234 0
-80 -233 0
-79 -238 0
-79 -239 0
-84 -241 0
-80 -239 0
-84 -239 0
-78 -253 0
-78 -254 0
-80 -259 0
-83 -255 0
-82 -296 0
-83 -297 0
-83 -295 0
-83 -301 0
-91 -109 0
-87 -109 0
-86 -111 0
-85 -110 0
-86 -123 0
-87 -122 0
-91 -126 0
-86 -122 0
-91 -127 0
-85 -127 0
-89 -128 0
-89 -133 0
-88 -151 0
-86 -153 0
-86 -154 0
-87 -150 0
-90 -178 0
-91 -179 0
-91 -180 0
-87 -179 0
-86 -188 0
-90 -183 0
-86 -185 0
-87 -189 0
-85 -208 0
-88 -210 0
-86 -210 0
-89 -204 0
-87 -233 0
-90 -235 0
-86 -234 0
-87 -236 0
-88 -262 0
-87 -260 0
-87 -266 0
-89 -264 0
-90 -288 0
-88 -288 0
-88 -292 0
-88 -289 0
-91 -310 0
-86 -315 0
-89 -311 0
-86 -312 0
-97 -110 0
-96 -106 0
-97 -108 0
-93 -110 0
-93 -134 0
-94 -138 0
-93 -135 0
-96 -137 0
-94 -142 0
-96 -147 0
-98 -142 0
-95 -145 0
-98 -148 0
-98 -149 0
-96 -149 0
-94 -150 0
-97 -156 0
-96 -156 0
-94 -159 0
-92 -155 0
-98 -175 0
-93 -173 0
-93 -171 0
-98 -169 0
-94 -178 0
-95 -179 0
-96 -180 0
-92 -177 0
-93 -191 0
-96 -191 0
-96 -195 0
-97 -195 0
-98 -199 0
-95 -200 0
-98 -203 0
-93 -200 0
-94 -221 0
-98 -222 0
-92 -220 0
-93 -219 0
-95 -227 0
-98 -228 0
-98 -226 0
-92 -229 0
-95 -244 0
-96 -242 0
-98 -242 0
-94 -243 0
-92 -246 0
-98 -250 0
-98 -251 0
-95 -247 0
-93 -264 0
-92 -263 0
-94 -263 0
-95 -265 0
-94 -275 0
-94 -274 0
-93 -276 0
-96 -274 0
-97 -285 0
-94 -283 0
-93 -281 0
-97 -284 0
-98 -290 0
-96 -289 0
-98 -291 0
-93 -288 0
-97 -303 0
-94 -304 0
-92 -304 0
-98 -307 0
-101 -116 0
-100 -118 0
-104 -115 0
-103 -119 0
-102 -121 0
-100 -126 0
-105 -123 0
-100 -123 0
-101 -137 0
-102 -139 0
-104 -137 0
-100 -134 0
-102 -145 0
-103 -147 0
-102 -146 0
-104 -146 0
-103 -153 0
-101 -149 0
-103 -148 0
-99 -149 0
-102 -160 0
-102 -161 0
-105 -157 0
-104 -155 0
-100 -193 0
-103 -196 0
-102 -191 0
-101 -192 0
-105 -201 0
-100 -199 0
-99 -201 0
-105 -197 0
-104 -210 0
-105 -207 0
-102 -207 0
-103 -205 0
-102 -211 0
-102 -212 0
-101 -215 0
-101 -212 0
-104 -233 0
-102 -238 0
-102 -236 0
-100 -234 0
-105 -239 0
-103 -244 0
-100 -239 0
-99 -241 0
-105 -268 0
-102 -272 0
-99 -273 0
-104 -269 0
-101 -277 0
-100 -280 0
-102 -278 0
-100 -275 0
-103 -302 0
-103 -303 0
-103 -307 0
-104 -305 0
-112 -122 0
-111 -125 0
-108 -121 0
-109 -123 0
-110 -130 0
-107 -127 0
-109 -131 0
-106 -133 0
-106 -136 0
-110 -140 0
-106 -138 0
-109 -140 0
-106 -150 0
-106 -153 0
-111 -148 0
-106 -149 0
-112 -162 0
-112 -163 0
-111 -162 0
-110 -165 0
-106 -184 0
-110 -186 0
-111 -183 0
-108 -189 0
-106 -214 0
-112 -211 0
-107 -211 0
-111 -217 0
-111 -226 0
-107 -231 0
-107 -227 0
-110 -228 0
-111 -251 0
-108 -249 0
-111 -248 0
-106 -247 0
-107 -274 0
-109 -279 0
-112 -279 0
-108 -280 0
-109 -287 0
-109 -283 0
-106 -284 0
-111 -284 0
-109 -294 0
-107 -292 0
-106 -293 0
-108 -294 0
-108 -301 0
-108 -298 0
-108 -297 0
-112 -300 0
-111 -311 0
-108 -312 0
-110 -311 0
-108 -310 0
-113 -120 0
-119 -124 0
-114 -120 0
-119 -126 0
-114 -131 0
-119 -133 0
-117 -130 0
-115 -130 0
-117 -151 0
-119 -152 0
-118 -150 0
-114 -148 0
-119 -157 0
-116 -156 0
-116 -159 0
-113 -161 0
-118 -168 0
-114 -163 0
-115 -165 0
-119 -167 0
-116 -170 0
-115 -175 0
-113 -169 0
-117 -173 0
-113 -188 0
-115 -188 0
-117 -184 0
-113 -183 0
-117 -224 0
-118 -219 0
-119 -223 0
-116 -223 0
-117 -239 0
-115 -245 0
-117 -243 0
-113 -239 0
-118 -255 0
-118 -254 0
-118 -256 0
-115 -256 0
-116 -270 0
-119 -271 0
-113 -271 0
-114 -268 0
-117 -286 0
-115 -282 0
-113 -287 0
-116 -284 0
-118 -294 0
-119 -291 0
-119 -294 0
-119 -288 0
-118 -308 0
-119 -304 0
-117 -306 0
-116 -307 0
-122 -138 0
-123 -137 0
-121 -138 0
-124 -138 0
-123 -151 0
-122 -153 0
-120 -154 0
-124 -148 0
-122 -164 0
-124 -163 0
-125 -162 0
-123 -165 0
-126 -174 0
-121 -169 0
-120 -174 0
-122 -172 0
-125 -179 0
-124 -177 0
-120 -180 0
-123 -178 0
-120 -183 0
-121 -189 0
-122 -189 0
-120 -188 0
-123 -194 0
-122 -194 0
-126 -191 0
-123 -192 0
-126 -203 0
-120 -203 0
-120 -198 0
-126 -198 0
-123 -207 0
-124 -209 0
-120 -205 0
-121 -210 0
-121 -211 0
-122 -215 0
-120 -212 0
-120 -211 0
-124 -220 0
-122 -219 0
-121 -220 0
-120 -221 0
-126 -240 0
-121 -243 0
-125 -239 0
-120 -245 0
-124 -255 0
-120 -256 0
-125 -255 0
-122 -254 0
-126 -264 0
-124 -260 0
-122 -266 0
-124 -263 0
-122 -277 0
-123 -274 0
-125 -278 0
-125 -275 0
-122 -290 0
-124 -292 0
-126 -288 0
-124 -293 0
-131 -137 0
-132 -134 0
-128 -134 0
-133 -140 0
-131 -156 0
-128 -161 0
-131 -158 0
-128 -160 0
-128 -164 0
-127 -163 0
-129 -167 0
-131 -165 0
-133 -191 0
-130 -194 0
-133 -195 0
-130 -191 0
-131 -197 0
-132 -198 0
-127 -202 0
-130 -199 0
-133 -205 0
-133 -209 0
-128 -204 0
-128 -208 0
-129 -243 0
-129 -239 0
-133 -243 0
-133 -245 0
-131 -247 0
-130 -250 0
-127 -251 0
-128 -250 0
-133 -254 0
-132 -254 0
-127 -258 0
-133 -257 0
-127 -272 0
-133 -269 0
-130 -272 0
-129 -273 0
-131 -293 0
-133 -289 0
-129 -292 0
-130 -292 0
-130 -304 0
-127 -308 0
-132 -307 0
-131 -305 0
-138 -144 0
-135 -144 0
-136 -145 0
-135 -142 0
-140 -158 0
-137 -157 0
-140 -161 0
-136 -160 0
-138 -169 0
-137 -174 0
-137 -175 0
-134 -175 0
-137 -197 0
-135 -198 0
-139 -201 0
-134 -203 0
-139 -206 0
-137 -206 0
-135 -210 0
-139 -204 0
-136 -220 0
-135 -223 0
-134 -218 0
-134 -220 0
-137 -227 0
-135 -225 0
-139 -228 0
-139 -231 0
-135 -244 0
-139 -243 0
-138 -241 0
-136 -245 0
-134 -252 0
-138 -251 0
-139 -249 0
-136 -250 0
-134 -265 0
-138 -264 0
-135 -266 0
-140 -264 0
-139 -293 0
-138 -291 0
-134 -292 0
-135 -290 0
-134 -309 0
-140 -314 0
-139 -310 0
-136 -311 0
-147 -165 0
-143 -166 0
-141 -168 0
-146 -167 0
-142 -171 0
-144 -171 0
-147 -174 0
-143 -171 0
-147 -181 0
-145 -182 0
-144 -177 0
-147 -176 0
-142 -189 0
-141 -187 0
-144 -184 0
-142 -187 0
-145 -200 0
-147 -200 0
-144 -202 0
-147 -199 0
-141 -205 0
-146 -207 0
-145 -207 0
-143 -210 0
-143 -214 0
-142 -217 0
-141 -213 0
-146 -216 0
-147 -238 0
-143 -234 0
-141 -232 0
-146 -233 0
-147 -253 0
-141 -256 0
-143 -259 0
-147 -256 0
-147 -266 0
-142 -262 0
-146 -264 0
-147 -263 0
-144 -278 0
-145 -274 0
-145 -276 0
-147 -275 0
-146 -284 0
-142 -283 0
-143 -284 0
-147 -282 0
-153 -157 0
-151 -158 0
-154 -159 0
-149 -159 0
-151 -169 0
-151 -170 0
-153 -170 0
-151 -174 0
-150 -178 0
-154 -180 0
-154 -179 0
-150 -177 0
-150 -220 0
-153 -221 0
-152 -221 0
-151 -220 0
-154 -238 0
-151 -236 0
-151 -238 0
-153 -236 0
-152 -243 0
-153 -240 0
-150 -244 0
-151 -244 0
-149 -249 0
-150 -252 0
-151 -251 0
-151 -248 0
-149 -257 0
-154 -254 0
-148 -255 0
-149 -253 0
-154 -272 0
-153 -273 0
-153 -267 0
-150 -269 0
-154 -276 0
-149 -275 0
-148 -278 0
-151 -275 0
-152 -287 0
-148 -283 0
-151 -282 0
-154 -285 0
-154 -308 0
-150 -305 0
-151 -307 0
-148 -303 0
-155 -164 0
-161 -164 0
-156 -168 0
-158 -166 0
-161 -198 0
-157 -198 0
-155 -199 0
-159 -203 0
-158 -204 0
-159 -208 0
-155 -205 0
-159 -210 0
-161 -216 0
-159 -214 0
-160 -213 0
-156 -217 0
-157 -222 0
-156 -224 0
-158 -224 0
-161 -218 0
-159 -232 0
-156 -235 0
-155 -236 0
-155 -238 0
-158 -257 0
-155 -254 0
-157 -256 0
-155 -257 0
-158 -263 0
-156 -261 0
-159 -261 0
-159 -264 0
-159 -270 0
-157 -273 0
-160 -270 0
-158 -267 0
-155 -281 0
-157 -285 0
-155 -287 0
-161 -287 0
-158 -312 0
-157 -310 0
-159 -314 0
-160 -310 0
-166 -170 0
-163 -171 0
-167 -173 0
-165 -169 0
-164 -176 0
-166 -176 0
-163 -181 0
-165 -179 0
-168 -192 0
-168 -193 0
-166 -194 0
-162 -190 0
-164 -201 0
-165 -200 0
-164 -198 0
-165 -197 0
-163 -208 0
-165 -207 0
-167 -208 0
-164 -210 0
-163 -222 0
-165 -218 0
-164 -218 0
-165 -224 0
-168 -233 0
-163 -234 0
-166 -232 0
-167 -233 0
-162 -244 0
-164 -243 0
-162 -240 0
-163 -239 0
-162 -252 0
-166 -247 0
-163 -252 0
-167 -251 0
-162 -268 0
-167 -267 0
-165 -273 0
-165 -267 0
-166 -274 0
-167 -276 0
-168 -280 0
-163 -276 0
-171 -211 0
-169 -211 0
-173 -212 0
-171 -214 0
-170 -219 0
-170 -222 0
-174 -218 0
-172 -222 0
-174 -235 0
-173 -238 0
-170 -237 0
-174 -237 0
-169 -242 0
-170 -243 0
-174 -240 0
-169 -245 0
-175 -266 0
-172 -266 0
-172 -260 0
-172 -264 0
-174 -268 0
-171 -273 0
-170 -273 0
-169 -267 0
-171 -278 0
-174 -276 0
-172 -274 0
-170 -274 0
-171 -281 0
-172 -284 0
-173 -284 0
-172 -287 0
-171 -293 0
-170 -288 0
-173 -289 0
-171 -290 0
-173 -312 0
-173 -315 0
-170 -310 0
-170 -315 0
-179 -208 0
-181 -208 0
-180 -205 0
-179 -210 0
-176 -236 0
-177 -237 0
-181 -237 0
-178 -237 0
-182 -245 0
-179 -243 0
-179 -244 0
-180 -245 0
-181 -249 0
-182 -249 0
-179 -247 0
-182 -252 0
-178 -256 0
-176 -258 0
-179 -253 0
-179 -258 0
-178 -284 0
-180 -283 0
-182 -284 0
-182 -285 0
-178 -300 0
-176 -298 0
-178 -297 0
-177 -299 0
-181 -312 0
-181 -314 0
-179 -309 0
-182 -310 0
-186 -190 0
-189 -196 0
-188 -193 0
-185 -190 0
-185 -199 0
-186 -200 0
-187 -200 0
-188 -200 0
-184 -205 0
-188 -208 0
-189 -210 0
-186 -206 0
-189 -223 0
-188 -218 0
-189 -222 0
-183 -219 0
-184 -247 0
-185 -251 0
-188 -251 0
-187 -250 0
-187 -256 0
-186 -254 0
-186 -257 0
-188 -259 0
-183 -262 0
-188 -261 0
-189 -266 0
-183 -266 0
-188 -275 0
-184 -276 0
-189 -278 0
-188 -277 0
-183 -298 0
-186 -300 0
-189 -299 0
-183 -297 0
-184 -311 0
-186 -309 0
-184 -313 0
-185 -310 0
-190 -212 0
-190 -213 0
-192 -214 0
-193 -217 0
-195 -224 0
-194 -219 0
-190 -224 0
-194 -220 0
-190 -235 0
-196 -233 0
-194 -232 0
-194 -236 0
-195 -240 0
-195 -239 0
-193 -239 0
-196 -242 0
-193 -247 0
-195 -251 0
-191 -246 0
-196 -251 0
-195 -281 0
-195 -283 0
-194 -287 0
-192 -281 0
-190 -306 0
-195 -303 0
-191 -302 0
-196 -304 0
-194 -312 0
-192 -315 0
-193 -310 0
-190 -314 0
-203 -206 0
-201 -206 0
-201 -205 0
-199 -207 0
-200 -217 0
-200 -212 0
-202 -212 0
-200 -215 0
-202 -245 0
-201 -240 0
-201 -243 0
-202 -240 0
-197 -250 0
-200 -249 0
-199 -251 0
-203 -246 0
-201 -271 0
-200 -267 0
-203 -267 0
-201 -273 0
-202 -282 0
-201 -282 0
-197 -284 0
-197 -281 0
-197 -300 0
-201 -298 0
-202 -301 0
-201 -295 0
-202 -314 0
-203 -314 0
-200 -315 0
-197 -310 0
-205 -247 0
-209 -251 0
-208 -251 0
-210 -251 0
-209 -261 0
-206 -261 0
-205 -260 0
-207 -264 0
-208 -269 0
-205 -270 0
-204 -272 0
-210 -270 0
-206 -278 0
-204 -279 0
-206 -276 0
-210 -278 0
-206 -281 0
-208 -282 0
-210 -283 0
-205 -287 0
-206 -301 0
-206 -300 0
-208 -298 0
-206 -297 0
-209 -302 0
-210 -305 0
-208 -308 0
-209 -307 0
-212 -237 0
-212 -232 0
-213 -233 0
-213 -234 0
-211 -253 0
-213 -255 0
-215 -259 0
-212 -254 0
-214 -265 0
-213 -263 0
-215 -260 0
-216 -263 0
-213 -270 0
-217 -269 0
-213 -268 0
-215 -267 0
-216 -285 0
-217 -287 0
-211 -286 0
-213 -287 0
-216 -310 0
-212 -309 0
-216 -309 0
-217 -312 0
-220 -236 0
-218 -237 0
-224 -234 0
-223 -232 0
-224 -245 0
-224 -243 0
-221 -239 0
-224 -239 0
-224 -256 0
-219 -256 0
-218 -259 0
-224 -253 0
-219 -281 0
-223 -282 0
-219 -285 0
-220 -284 0
-220 -298 0
-223 -301 0
-224 -299 0
-224 -296 0
-222 -313 0
-223 -315 0
-218 -312 0
-218 -309 0
-231 -235 0
-229 -237 0
-225 -234 0
-229 -236 0
-230 -259 0
-225 -256 0
-229 -253 0
-230 -257 0
-229 -263 0
-227 -260 0
-231 -265 0
-229 -262 0
-229 -273 0
-229 -267 0
-228 -268 0
-231 -268 0
-229 -288 0
-225 -293 0
-229 -289 0
-227 -292 0
-230 -300 0
-228 -296 0
-231 -298 0
-229 -300 0
-236 -245 0
-233 -241 0
-238 -241 0
-233 -242 0
-234 -258 0
-232 -255 0
-238 -258 0
-238 -255 0
-237 -282 0
-232 -285 0
-236 -282 0
-234 -282 0
-234 -291 0
-237 -292 0
-235 -292 0
-235 -294 0
-237 -298 0
-236 -300 0
-235 -295 0
-237 -299 0
-237 -312 0
-232 -313 0
-234 -315 0
-232 -315 0
-241 -250 0
-243 -247 0
-242 -247 0
-240 -246 0
-243 -260 0
-241 -265 0
-239 -264 0
-240 -266 0
-242 -285 0
-243 -281 0
-243 -282 0
-240 -284 0
-242 -293 0
-240 -290 0
-239 -291 0
-243 -290 0
-240 -310 0
-241 -314 0
-241 -315 0
-245 -314 0
-251 -255 0
-250 -253 0
-246 -254 0
-250 -256 0
-250 -268 0
-251 -267 0
-247 -271 0
-248 -270 0
-249 -274 0
-248 -277 0
-250 -274 0
-247 -280 0
-252 -286 0
-249 -286 0
-247 -281 0
-246 -282 0
-252 -296 0
-251 -301 0
-247 -298 0
-249 -298 0
-249 -302 0
-250 -305 0
-249 -308 0
-251 -305 0
-257 -270 0
-258 -267 0
-259 -270 0
-256 -270 0
-259 -278 0
-253 -276 0
-255 -280 0
-254 -274 0
-255 -283 0
-255 -286 0
-258 -286 0
-259 -282 0
-253 -289 0
-253 -290 0
-254 -293 0
-256 -293 0
-253 -314 0
-257 -309 0
-259 -313 0
-258 -313 0
-261 -269 0
-263 -267 0
-262 -268 0
-262 -267 0
-261 -288 0
-260 -288 0
-265 -289 0
-264 -289 0
-260 -298 0
-262 -301 0
-263 -299 0
-260 -301 0
-273 -281 0
-273 -287 0
-270 -287 0
-272 -281 0
-270 -288 0
-269 -288 0
-272 -294 0
-267 -288 0
-268 -295 0
-270 -296 0
-271 -298 0
-273 -296 0
-270 -308 0
-267 -306 0
-269 -303 0
-267 -305 0
-274 -282 0
-276 -287 0
-277 -284 0
-280 -286 0
-275 -299 0
-274 -301 0
-276 -297 0
-278 -298 0
-276 -302 0
-277 -302 0
-274 -302 0
-275 -305 0
-276 -315 0
-275 -313 0
-276 -312 0
-274 -313 0
-294 -299 0
-289 -296 0
-290 -299 0
-289 -301 0
-294 -309 0
-291 -312 0
-290 -313 0
-289 -310 0
-296 -305 0
-298 -304 0
-295 -302 0
-297 -305 0
